benchmark/results/graph__10-1000-0.10-03_6/graph__10-1000-0.10-03_6_QuintonOs_Benders_aux.lp
\ This file has been generated by DOcplex
\ ENCODING=ISO-8859-1
\Problem name: Quinton Bounded Benders_auxiliary_sub

Minimize
 obj: 0.001782531194 pi_nr_a0 + 0.001209967001 pi_nr_a1
      + 0.001603297573 pi_nr_a2 + 0.001369863014 pi_nr_a3
      + 0.000955875372 pi_nr_a4 + 0.000976807160 pi_nr_a5
      + 0.004984507958 pi_nr_a6 + 0.001244341175 pi_nr_a7
      + 0.001170960187 pi_nr_a8 + 0.001021735768 pi_nr_a9 + pi_p_a3_a1
      + pi_p_a6_a7 + pi_p_a6_a8 + pi_p_a0_a9 + pi_p_a2_a9 + pi_p_a6_a4
      + pi_p_a5_a3 + pi_p_a0_a3 + pi_p_a2_a6
      + 655.490169164252 pi_d_a0_a1_proc_0 + 1952.509805202454 pi_d_a0_a1_proc_1
      + 642.490349408758 pi_d_a1_a0_proc_0 + 1939.509985446960 pi_d_a1_a0_proc_1
      + 1284.653616048088 pi_d_a0_a2_proc_0
      + 2601.463461543687 pi_d_a0_a2_proc_1
      + 1260.156674050187 pi_d_a2_a0_proc_0
      + 2576.966519545786 pi_d_a2_a0_proc_1 + pi_d_a0_a3_proc_0
      - 0.000000000000 pi_d_a3_a0_proc_0 + 2562.965805048957 pi_d_a0_a4_proc_1
      + 2537.965805048957 pi_d_a4_a0_proc_1
      + 1203.644973361239 pi_d_a0_a5_proc_0
      + 1440.311608856919 pi_d_a0_a5_proc_1
      + 1201.740505647402 pi_d_a5_a0_proc_0
      + 1438.407141143081 pi_d_a5_a0_proc_1
      + 1291.074795145563 pi_d_a0_a6_proc_0
      + 1290.941920418691 pi_d_a6_a0_proc_0 + 643.499992489815 pi_d_a0_a7_proc_0
      + 2588.999992489815 pi_d_a0_a7_proc_1 + 654.500007510185 pi_d_a7_a0_proc_0
      + 2600.000007510185 pi_d_a7_a0_proc_1
      + 1297.499809265137 pi_d_a0_a8_proc_0
      + 1297.499809265137 pi_d_a0_a8_proc_1
      + 1297.500190734863 pi_d_a8_a0_proc_0
      + 1297.500190734863 pi_d_a8_a0_proc_1 + 767.892306229611 pi_d_a0_a9_proc_0
      + 1862.763007033102 pi_d_a0_a9_proc_1 + 752.831637513407 pi_d_a9_a0_proc_0
      + 1847.702338316898 pi_d_a9_a0_proc_1
      + 1340.326742499531 pi_d_a1_a2_proc_2
      + 1933.342437040260 pi_d_a1_a2_proc_0
      + 1953.171918574061 pi_d_a1_a2_proc_1
      + 1315.432677090297 pi_d_a2_a1_proc_2
      + 1908.448371631025 pi_d_a2_a1_proc_0
      + 1928.277853164826 pi_d_a2_a1_proc_1 + 655.490169164252 pi_d_a1_a3_proc_0
      + 642.490349408758 pi_d_a3_a1_proc_0 + 1353.626629241424 pi_d_a1_a4_proc_2
      + 1914.068289275258 pi_d_a1_a4_proc_1
      + 1329.441451438237 pi_d_a4_a1_proc_2
      + 1889.883111472071 pi_d_a4_a1_proc_1
      + 2552.479644640239 pi_d_a1_a5_proc_2
      + 1856.214912546597 pi_d_a1_a5_proc_0 + 795.901184080478 pi_d_a1_a5_proc_1
      + 2542.415817128697 pi_d_a5_a1_proc_2
      + 1846.151085035054 pi_d_a5_a1_proc_0 + 785.837356568936 pi_d_a5_a1_proc_1
      + 1305.163174813017 pi_d_a1_a6_proc_2
      + 1940.670304274988 pi_d_a1_a6_proc_0
      + 1302.819800400305 pi_d_a6_a1_proc_2
      + 1938.326929862276 pi_d_a6_a1_proc_0
      + 1933.500325561976 pi_d_a1_a7_proc_2
      + 1284.990739459693 pi_d_a1_a7_proc_0
      + 1933.510375497895 pi_d_a1_a7_proc_1
      + 1958.499365215600 pi_d_a7_a1_proc_2
      + 1309.989779113317 pi_d_a7_a1_proc_0
      + 1958.509415151519 pi_d_a7_a1_proc_1
      + 1952.490341898878 pi_d_a1_a8_proc_0 + 655.509977937080 pi_d_a1_a8_proc_1
      + 1939.490176674132 pi_d_a8_a1_proc_0 + 642.509812712334 pi_d_a8_a1_proc_1
      + 2573.062847020838 pi_d_a1_a9_proc_2
      + 1408.009877336573 pi_d_a1_a9_proc_0
      + 1205.900214178267 pi_d_a1_a9_proc_1
      + 2574.747554663719 pi_d_a9_a1_proc_2
      + 1409.694584979454 pi_d_a9_a1_proc_0
      + 1207.584921821148 pi_d_a9_a1_proc_1
      + 1269.653250317480 pi_d_a2_a3_proc_0
      + 1275.157039780795 pi_d_a3_a2_proc_0 + 76.066902131852 pi_d_a2_a4_proc_2
      + 2546.333638368377 pi_d_a2_a4_proc_1 + 73.761216582485 pi_d_a4_a2_proc_2
      + 2544.027952819011 pi_d_a4_a2_proc_1
      + 1282.959554823472 pi_d_a2_a5_proc_2
      + 2476.729689475123 pi_d_a2_a5_proc_0
      + 1436.206170466403 pi_d_a2_a5_proc_1
      + 1278.695944980140 pi_d_a5_a2_proc_2
      + 2472.466079631792 pi_d_a5_a2_proc_0
      + 1431.942560623071 pi_d_a5_a2_proc_1 + 37.509387925835 pi_d_a2_a6_proc_2
      + 2563.051384133101 pi_d_a2_a6_proc_0 + 37.233625322162 pi_d_a6_a2_proc_2
      + 2562.775621529428 pi_d_a6_a2_proc_0 + 674.150741791871 pi_d_a2_a7_proc_2
      + 1915.676022434883 pi_d_a2_a7_proc_0
      + 2583.985867930483 pi_d_a2_a7_proc_1 + 684.608987020380 pi_d_a7_a2_proc_2
      + 1926.134267663392 pi_d_a7_a2_proc_0
      + 2594.444113158991 pi_d_a7_a2_proc_1
      + 2581.078904411728 pi_d_a2_a8_proc_0
      + 1303.888749907328 pi_d_a2_a8_proc_1
      + 2557.731385686547 pi_d_a8_a2_proc_0
      + 1280.541231182146 pi_d_a8_a2_proc_1
      + 1319.735658668109 pi_d_a2_a9_proc_2
      + 2044.717555729139 pi_d_a2_a9_proc_0
      + 1862.398102028229 pi_d_a2_a9_proc_1
      + 1294.834781051124 pi_d_a9_a2_proc_2
      + 2019.816678112154 pi_d_a9_a2_proc_0
      + 1837.497224411245 pi_d_a9_a2_proc_1
      + 1214.242473978920 pi_d_a3_a5_proc_0
      + 1191.143005029720 pi_d_a5_a3_proc_0
      + 1303.443255443525 pi_d_a3_a6_proc_0
      + 1278.573460120729 pi_d_a6_a3_proc_0 + 643 pi_d_a3_a7_proc_0
      + 655 pi_d_a7_a3_proc_0 + 1310 pi_d_a3_a8_proc_0 + 1285 pi_d_a8_a3_proc_0
      + 766.993693482647 pi_d_a3_a9_proc_0 + 753.730250260371 pi_d_a9_a3_proc_0
      + 1296.369936034468 pi_d_a4_a5_proc_2
      + 1397.213035636703 pi_d_a4_a5_proc_1
      + 1292.594224858977 pi_d_a5_a4_proc_2
      + 1393.437324461212 pi_d_a5_a4_proc_1 + 51.032264218411 pi_d_a4_a6_proc_2
      + 51.019410119420 pi_d_a6_a4_proc_2 + 699.534194951043 pi_d_a4_a7_proc_2
      + 2556.965805048957 pi_d_a4_a7_proc_1 + 686.534194951043 pi_d_a7_a4_proc_2
      + 2543.965805048957 pi_d_a7_a4_proc_1
      + 1265.558395380945 pi_d_a4_a8_proc_1
      + 1241.373214716970 pi_d_a8_a4_proc_1
      + 1333.204563145574 pi_d_a4_a9_proc_2
      + 1823.463490464999 pi_d_a4_a9_proc_1
      + 1308.674537663492 pi_d_a9_a4_proc_2
      + 1798.933464982917 pi_d_a9_a4_proc_1
      + 1257.414180836895 pi_d_a5_a6_proc_2
      + 2493.675750409790 pi_d_a5_a6_proc_0
      + 1256.464874590210 pi_d_a6_a5_proc_2
      + 2492.726444163105 pi_d_a6_a5_proc_0
      + 1910.445438125691 pi_d_a5_a7_proc_2
      + 1862.690292134332 pi_d_a5_a7_proc_0
      + 1450.856927630011 pi_d_a5_a7_proc_1
      + 1887.450332865669 pi_d_a7_a5_proc_2
      + 1839.695186874309 pi_d_a7_a5_proc_0
      + 1427.861822369989 pi_d_a7_a5_proc_1
      + 2501.505090492708 pi_d_a5_a8_proc_0 + 144.171725988388 pi_d_a5_a8_proc_1
      + 2497.880388515932 pi_d_a8_a5_proc_0 + 140.547024011612 pi_d_a8_a5_proc_1
      + 2533.068176468903 pi_d_a5_a9_proc_2
      + 1968.769646895562 pi_d_a5_a9_proc_0 + 706.306983194733 pi_d_a5_a9_proc_1
      + 2520.638305429438 pi_d_a9_a5_proc_2
      + 1956.339775856097 pi_d_a9_a5_proc_0 + 693.877112155268 pi_d_a9_a5_proc_1
      + 661.931580763267 pi_d_a6_a7_proc_2 + 1945.948296327521 pi_d_a6_a7_proc_0
      + 649.051703672479 pi_d_a7_a6_proc_2 + 1933.068419236733 pi_d_a7_a6_proc_0
      + 2575.508357782127 pi_d_a6_a8_proc_0
      + 2600.508357782127 pi_d_a8_a6_proc_0
      + 1295.517607292881 pi_d_a6_a9_proc_2
      + 2062.990939275154 pi_d_a6_a9_proc_0
      + 1271.276388049846 pi_d_a9_a6_proc_2
      + 2038.749720032118 pi_d_a9_a6_proc_0
      + 1958.499618530273 pi_d_a7_a8_proc_0
      + 1309.999618530273 pi_d_a7_a8_proc_1
      + 1933.500381469727 pi_d_a8_a7_proc_0
      + 1285.000381469727 pi_d_a8_a7_proc_1
      + 1930.539936867674 pi_d_a7_a9_proc_2
      + 1413.996553285693 pi_d_a7_a9_proc_0
      + 1860.367254089184 pi_d_a7_a9_proc_1
      + 1920.270774039306 pi_d_a9_a7_proc_2
      + 1403.727390457325 pi_d_a9_a7_proc_0
      + 1850.098091260816 pi_d_a9_a7_proc_1
      + 2062.452199122685 pi_d_a8_a9_proc_0 + 563.322899926176 pi_d_a8_a9_proc_1
      + 2052.271744620333 pi_d_a9_a8_proc_0 + 553.142445423824 pi_d_a9_a8_proc_1
      + pi_y2_a0_proc_0 + 0.000000000000 pi_y2_a0_proc_1
      + 0.500007510188 pi_y2_a1_proc_0 + 0.499992370605 pi_y2_a1_proc_1
      + 0.000000119207 pi_y2_a1_proc_2 + 0.019348384696 pi_y2_a2_proc_0
      + 0.004074795262 pi_y2_a2_proc_1 + 0.976576820042 pi_y2_a2_proc_2
      + pi_y2_a3_proc_0 + 0.033950805668 pi_y2_a4_proc_1
      + 0.966049194332 pi_y2_a4_proc_2 + 0.073097348108 pi_y2_a5_proc_0
      + 0.890625000000 pi_y2_a5_proc_1 + 0.036277651892 pi_y2_a5_proc_2
      + 0.005005121217 pi_y2_a6_proc_0 + 0.994994878783 pi_y2_a6_proc_2
      + 0.500000000000 pi_y2_a7_proc_0 + 0.000000000000 pi_y2_a7_proc_1
      + 0.500000000000 pi_y2_a7_proc_2 + 0.000000000000 pi_y2_a8_proc_0
      + pi_y2_a8_proc_1 + 0.414138803492 pi_y2_a9_proc_0
      + 0.569982519140 pi_y2_a9_proc_1 + 0.015878677368 pi_y2_a9_proc_2
Subject To
 c1: 0.001782531194 pi_nr_a0 + 0.001400560224 pi_nr_a1 + 0.001620745543 pi_nr_a2
     + 0.001369863014 pi_nr_a3 + 0.000960614793 pi_nr_a4
     + 0.000985221675 pi_nr_a5 + 0.005000000000 pi_nr_a6
     + 0.001026694045 pi_nr_a7 + 0.001170960187 pi_nr_a8
     + 0.001203369434 pi_nr_a9 + pi_p_a3_a1 + pi_p_a6_a7 + pi_p_a6_a8
     + pi_p_a0_a9 + pi_p_a2_a9 + pi_p_a6_a4 + pi_p_a5_a3 + pi_p_a0_a3
     + pi_p_a2_a6 + pi_d_a0_a1_proc_0 + 2595 pi_d_a0_a1_proc_1
     + 2594 pi_d_a1_a0_proc_1 + 1310 pi_d_a0_a2_proc_0 + 2607 pi_d_a0_a2_proc_1
     + 1285 pi_d_a2_a0_proc_0 + 2582 pi_d_a2_a0_proc_1 + pi_d_a0_a3_proc_0
     + 2607 pi_d_a0_a4_proc_1 + 2582 pi_d_a4_a0_proc_1 + 1310 pi_d_a0_a5_proc_0
     + 1310 pi_d_a0_a5_proc_1 + 1285 pi_d_a5_a0_proc_0 + 1285 pi_d_a5_a0_proc_1
     + 1310 pi_d_a0_a6_proc_0 + 1285 pi_d_a6_a0_proc_0 + 1285 pi_d_a0_a7_proc_0
     + 2582 pi_d_a0_a7_proc_1 + 1310 pi_d_a7_a0_proc_0 + 2607 pi_d_a7_a0_proc_1
     + 1285 pi_d_a0_a8_proc_0 + 1285 pi_d_a0_a8_proc_1 + 1310 pi_d_a8_a0_proc_0
     + 1310 pi_d_a8_a0_proc_1 + 1310 pi_d_a0_a9_proc_0 + 1310 pi_d_a0_a9_proc_1
     + 1285 pi_d_a9_a0_proc_0 + 1285 pi_d_a9_a0_proc_1 + 1310 pi_d_a1_a2_proc_2
     + 1310 pi_d_a1_a2_proc_0 + 2607 pi_d_a1_a2_proc_1 + 1285 pi_d_a2_a1_proc_2
     + 1285 pi_d_a2_a1_proc_0 + 2582 pi_d_a2_a1_proc_1 + pi_d_a1_a3_proc_0
     + 1310 pi_d_a1_a4_proc_2 + 2607 pi_d_a1_a4_proc_1 + 1285 pi_d_a4_a1_proc_2
     + 2582 pi_d_a4_a1_proc_1 + 2607 pi_d_a1_a5_proc_2 + 1310 pi_d_a1_a5_proc_0
     + 1310 pi_d_a1_a5_proc_1 + 2582 pi_d_a5_a1_proc_2 + 1285 pi_d_a5_a1_proc_0
     + 1285 pi_d_a5_a1_proc_1 + 1310 pi_d_a1_a6_proc_2 + 1310 pi_d_a1_a6_proc_0
     + 1285 pi_d_a6_a1_proc_2 + 1285 pi_d_a6_a1_proc_0 + 1285 pi_d_a1_a7_proc_2
     + 1285 pi_d_a1_a7_proc_0 + 2582 pi_d_a1_a7_proc_1 + 1310 pi_d_a7_a1_proc_2
     + 1310 pi_d_a7_a1_proc_0 + 2607 pi_d_a7_a1_proc_1 + 1310 pi_d_a1_a8_proc_0
     + 1310 pi_d_a1_a8_proc_1 + 1285 pi_d_a8_a1_proc_0 + 1285 pi_d_a8_a1_proc_1
     + 2582 pi_d_a1_a9_proc_2 + 1285 pi_d_a1_a9_proc_0 + 1285 pi_d_a1_a9_proc_1
     + 2607 pi_d_a9_a1_proc_2 + 1310 pi_d_a9_a1_proc_0 + 1310 pi_d_a9_a1_proc_1
     + 1285 pi_d_a2_a3_proc_0 + 1310 pi_d_a3_a2_proc_0 + pi_d_a2_a4_proc_2
     + 2595 pi_d_a2_a4_proc_1 + 2594 pi_d_a4_a2_proc_1 + 1310 pi_d_a2_a5_proc_2
     + 2607 pi_d_a2_a5_proc_0 + 1310 pi_d_a2_a5_proc_1 + 1285 pi_d_a5_a2_proc_2
     + 2582 pi_d_a5_a2_proc_0 + 1285 pi_d_a5_a2_proc_1 + pi_d_a2_a6_proc_2
     + 2595 pi_d_a2_a6_proc_0 + 2594 pi_d_a6_a2_proc_0 + 2 pi_d_a2_a7_proc_2
     + 2596 pi_d_a2_a7_proc_0 + 2596 pi_d_a2_a7_proc_1 - pi_d_a7_a2_proc_2
     + 2593 pi_d_a7_a2_proc_0 + 2593 pi_d_a7_a2_proc_1 + 2607 pi_d_a2_a8_proc_0
     + 1310 pi_d_a2_a8_proc_1 + 2582 pi_d_a8_a2_proc_0 + 1285 pi_d_a8_a2_proc_1
     + 1310 pi_d_a2_a9_proc_2 + 2607 pi_d_a2_a9_proc_0 + 1310 pi_d_a2_a9_proc_1
     + 1285 pi_d_a9_a2_proc_2 + 2582 pi_d_a9_a2_proc_0 + 1285 pi_d_a9_a2_proc_1
     + 1310 pi_d_a3_a5_proc_0 + 1285 pi_d_a5_a3_proc_0 + 1310 pi_d_a3_a6_proc_0
     + 1285 pi_d_a6_a3_proc_0 + 1285 pi_d_a3_a7_proc_0 + 1310 pi_d_a7_a3_proc_0
     + 1310 pi_d_a3_a8_proc_0 + 1285 pi_d_a8_a3_proc_0 + 1310 pi_d_a3_a9_proc_0
     + 1285 pi_d_a9_a3_proc_0 + 1310 pi_d_a4_a5_proc_2 + 1310 pi_d_a4_a5_proc_1
     + 1285 pi_d_a5_a4_proc_2 + 1285 pi_d_a5_a4_proc_1 + pi_d_a6_a4_proc_2
     + pi_d_a4_a7_proc_2 + 2595 pi_d_a4_a7_proc_1 + 2594 pi_d_a7_a4_proc_1
     + 1310 pi_d_a4_a8_proc_1 + 1285 pi_d_a8_a4_proc_1 + 1310 pi_d_a4_a9_proc_2
     + 1310 pi_d_a4_a9_proc_1 + 1285 pi_d_a9_a4_proc_2 + 1285 pi_d_a9_a4_proc_1
     + 1310 pi_d_a5_a6_proc_2 + 2607 pi_d_a5_a6_proc_0 + 1285 pi_d_a6_a5_proc_2
     + 2582 pi_d_a6_a5_proc_0 + 1310 pi_d_a5_a7_proc_2 + 2607 pi_d_a5_a7_proc_0
     + 1310 pi_d_a5_a7_proc_1 + 1285 pi_d_a7_a5_proc_2 + 2582 pi_d_a7_a5_proc_0
     + 1285 pi_d_a7_a5_proc_1 + 2595 pi_d_a5_a8_proc_0 + pi_d_a5_a8_proc_1
     + 2594 pi_d_a8_a5_proc_0 + 2595 pi_d_a5_a9_proc_2 + 2595 pi_d_a5_a9_proc_0
     + pi_d_a5_a9_proc_1 + 2594 pi_d_a9_a5_proc_2 + 2594 pi_d_a9_a5_proc_0
     + pi_d_a6_a7_proc_2 + 2595 pi_d_a6_a7_proc_0 + 2594 pi_d_a7_a6_proc_0
     + 2582 pi_d_a6_a8_proc_0 + 2607 pi_d_a8_a6_proc_0 + 1310 pi_d_a6_a9_proc_2
     + 2607 pi_d_a6_a9_proc_0 + 1285 pi_d_a9_a6_proc_2 + 2582 pi_d_a9_a6_proc_0
     + 2607 pi_d_a7_a8_proc_0 + 1310 pi_d_a7_a8_proc_1 + 2582 pi_d_a8_a7_proc_0
     + 1285 pi_d_a8_a7_proc_1 + 1310 pi_d_a7_a9_proc_2 + 2607 pi_d_a7_a9_proc_0
     + 1310 pi_d_a7_a9_proc_1 + 1285 pi_d_a9_a7_proc_2 + 2582 pi_d_a9_a7_proc_0
     + 1285 pi_d_a9_a7_proc_1 + 2594 pi_d_a8_a9_proc_0 + 2595 pi_d_a9_a8_proc_0
     + pi_d_a9_a8_proc_1 + pi_y2_a0_proc_0 + pi_y2_a1_proc_0 + pi_y2_a2_proc_2
     + pi_y2_a3_proc_0 + pi_y2_a4_proc_2 + pi_y2_a5_proc_1 + pi_y2_a6_proc_2
     + pi_y2_a7_proc_2 + pi_y2_a8_proc_1 + pi_y2_a9_proc_1 = 0.000325839036
 c2: pi_nr_a0 + pi_nr_a1 + pi_nr_a2 + pi_nr_a3 + pi_nr_a4 + pi_nr_a5 + pi_nr_a6
     + pi_nr_a7 + pi_nr_a8 + pi_nr_a9 - pi_y1_a0 - pi_y1_a1 - pi_y1_a2
     - pi_y1_a3 - pi_y1_a4 - pi_y1_a5 - pi_y1_a6 - pi_y1_a7 - pi_y1_a8
     - pi_y1_a9 >= 1
 c3: - pi_p_a1_a0 - pi_p_a9_a0 + pi_p_a0_a9 + pi_p_a0_a3 + pi_d_a0_a1_proc_0
     + pi_d_a0_a1_proc_1 - pi_d_a1_a0_proc_0 - pi_d_a1_a0_proc_1
     + pi_d_a0_a2_proc_0 + pi_d_a0_a2_proc_1 - pi_d_a2_a0_proc_0
     - pi_d_a2_a0_proc_1 + pi_d_a0_a3_proc_0 - pi_d_a3_a0_proc_0
     + pi_d_a0_a4_proc_1 - pi_d_a4_a0_proc_1 + pi_d_a0_a5_proc_0
     + pi_d_a0_a5_proc_1 - pi_d_a5_a0_proc_0 - pi_d_a5_a0_proc_1
     + pi_d_a0_a6_proc_0 - pi_d_a6_a0_proc_0 + pi_d_a0_a7_proc_0
     + pi_d_a0_a7_proc_1 - pi_d_a7_a0_proc_0 - pi_d_a7_a0_proc_1
     + pi_d_a0_a8_proc_0 + pi_d_a0_a8_proc_1 - pi_d_a8_a0_proc_0
     - pi_d_a8_a0_proc_1 + pi_d_a0_a9_proc_0 + pi_d_a0_a9_proc_1
     - pi_d_a9_a0_proc_0 - pi_d_a9_a0_proc_1 >= 0
 c4: 561 pi_p_a0_a9 + 561 pi_p_a0_a3 + 561 pi_d_a0_a1_proc_0
     + 561 pi_d_a0_a2_proc_0 + 561 pi_d_a0_a3_proc_0 + 561 pi_d_a0_a5_proc_0
     + 561 pi_d_a0_a6_proc_0 + 561 pi_d_a0_a7_proc_0 + 561 pi_d_a0_a8_proc_0
     + 561 pi_d_a0_a9_proc_0 + pi_y1_a0 + pi_y2_a0_proc_0 >= 0
 c5: 754 pi_p_a0_a9 + 754 pi_p_a0_a3 + 754 pi_d_a0_a1_proc_1
     + 754 pi_d_a0_a2_proc_1 + 754 pi_d_a0_a4_proc_1 + 754 pi_d_a0_a5_proc_1
     + 754 pi_d_a0_a7_proc_1 + 754 pi_d_a0_a8_proc_1 + 754 pi_d_a0_a9_proc_1
     + pi_y1_a0 + pi_y2_a0_proc_1 >= 0
 c6: pi_p_a1_a0 + pi_p_a1_a2 - pi_p_a3_a1 - pi_p_a4_a1 - pi_p_a8_a1
     - pi_d_a0_a1_proc_0 - pi_d_a0_a1_proc_1 + pi_d_a1_a0_proc_0
     + pi_d_a1_a0_proc_1 + pi_d_a1_a2_proc_2 + pi_d_a1_a2_proc_0
     + pi_d_a1_a2_proc_1 - pi_d_a2_a1_proc_2 - pi_d_a2_a1_proc_0
     - pi_d_a2_a1_proc_1 + pi_d_a1_a3_proc_0 - pi_d_a3_a1_proc_0
     + pi_d_a1_a4_proc_2 + pi_d_a1_a4_proc_1 - pi_d_a4_a1_proc_2
     - pi_d_a4_a1_proc_1 + pi_d_a1_a5_proc_2 + pi_d_a1_a5_proc_0
     + pi_d_a1_a5_proc_1 - pi_d_a5_a1_proc_2 - pi_d_a5_a1_proc_0
     - pi_d_a5_a1_proc_1 + pi_d_a1_a6_proc_2 + pi_d_a1_a6_proc_0
     - pi_d_a6_a1_proc_2 - pi_d_a6_a1_proc_0 + pi_d_a1_a7_proc_2
     + pi_d_a1_a7_proc_0 + pi_d_a1_a7_proc_1 - pi_d_a7_a1_proc_2
     - pi_d_a7_a1_proc_0 - pi_d_a7_a1_proc_1 + pi_d_a1_a8_proc_0
     + pi_d_a1_a8_proc_1 - pi_d_a8_a1_proc_0 - pi_d_a8_a1_proc_1
     + pi_d_a1_a9_proc_2 + pi_d_a1_a9_proc_0 + pi_d_a1_a9_proc_1
     - pi_d_a9_a1_proc_2 - pi_d_a9_a1_proc_0 - pi_d_a9_a1_proc_1 >= 0
 c7: 714 pi_p_a1_a0 + 714 pi_p_a1_a2 + 714 pi_d_a1_a0_proc_0
     + 714 pi_d_a1_a2_proc_0 + 714 pi_d_a1_a3_proc_0 + 714 pi_d_a1_a5_proc_0
     + 714 pi_d_a1_a6_proc_0 + 714 pi_d_a1_a7_proc_0 + 714 pi_d_a1_a8_proc_0
     + 714 pi_d_a1_a9_proc_0 + pi_y1_a1 + pi_y2_a1_proc_0 >= 0
 c8: 981 pi_p_a1_a0 + 981 pi_p_a1_a2 + 981 pi_d_a1_a0_proc_1
     + 981 pi_d_a1_a2_proc_1 + 981 pi_d_a1_a4_proc_1 + 981 pi_d_a1_a5_proc_1
     + 981 pi_d_a1_a7_proc_1 + 981 pi_d_a1_a8_proc_1 + 981 pi_d_a1_a9_proc_1
     + pi_y1_a1 + pi_y2_a1_proc_1 >= 0
 c9: 788 pi_p_a1_a0 + 788 pi_p_a1_a2 + 788 pi_d_a1_a2_proc_2
     + 788 pi_d_a1_a4_proc_2 + 788 pi_d_a1_a5_proc_2 + 788 pi_d_a1_a6_proc_2
     + 788 pi_d_a1_a7_proc_2 + 788 pi_d_a1_a9_proc_2 + pi_y1_a1
     + pi_y2_a1_proc_2 >= 0
 c10: - pi_p_a1_a2 + pi_p_a2_a9 + pi_p_a2_a6 - pi_d_a0_a2_proc_0
      - pi_d_a0_a2_proc_1 + pi_d_a2_a0_proc_0 + pi_d_a2_a0_proc_1
      - pi_d_a1_a2_proc_2 - pi_d_a1_a2_proc_0 - pi_d_a1_a2_proc_1
      + pi_d_a2_a1_proc_2 + pi_d_a2_a1_proc_0 + pi_d_a2_a1_proc_1
      + pi_d_a2_a3_proc_0 - pi_d_a3_a2_proc_0 + pi_d_a2_a4_proc_2
      + pi_d_a2_a4_proc_1 - pi_d_a4_a2_proc_2 - pi_d_a4_a2_proc_1
      + pi_d_a2_a5_proc_2 + pi_d_a2_a5_proc_0 + pi_d_a2_a5_proc_1
      - pi_d_a5_a2_proc_2 - pi_d_a5_a2_proc_0 - pi_d_a5_a2_proc_1
      + pi_d_a2_a6_proc_2 + pi_d_a2_a6_proc_0 - pi_d_a6_a2_proc_2
      - pi_d_a6_a2_proc_0 + pi_d_a2_a7_proc_2 + pi_d_a2_a7_proc_0
      + pi_d_a2_a7_proc_1 - pi_d_a7_a2_proc_2 - pi_d_a7_a2_proc_0
      - pi_d_a7_a2_proc_1 + pi_d_a2_a8_proc_0 + pi_d_a2_a8_proc_1
      - pi_d_a8_a2_proc_0 - pi_d_a8_a2_proc_1 + pi_d_a2_a9_proc_2
      + pi_d_a2_a9_proc_0 + pi_d_a2_a9_proc_1 - pi_d_a9_a2_proc_2
      - pi_d_a9_a2_proc_0 - pi_d_a9_a2_proc_1 >= 0
 c11: 1297 pi_p_a2_a9 + 1297 pi_p_a2_a6 + 1297 pi_d_a2_a0_proc_0
      + 1297 pi_d_a2_a1_proc_0 + 1297 pi_d_a2_a3_proc_0 + 1297 pi_d_a2_a5_proc_0
      + 1297 pi_d_a2_a6_proc_0 + 1297 pi_d_a2_a7_proc_0 + 1297 pi_d_a2_a8_proc_0
      + 1297 pi_d_a2_a9_proc_0 + pi_y1_a2 + pi_y2_a2_proc_0 >= 0
 c12: 728 pi_p_a2_a9 + 728 pi_p_a2_a6 + 728 pi_d_a2_a0_proc_1
      + 728 pi_d_a2_a1_proc_1 + 728 pi_d_a2_a4_proc_1 + 728 pi_d_a2_a5_proc_1
      + 728 pi_d_a2_a7_proc_1 + 728 pi_d_a2_a8_proc_1 + 728 pi_d_a2_a9_proc_1
      + pi_y1_a2 + pi_y2_a2_proc_1 >= 0
 c13: 617 pi_p_a2_a9 + 617 pi_p_a2_a6 + 617 pi_d_a2_a1_proc_2
      + 617 pi_d_a2_a4_proc_2 + 617 pi_d_a2_a5_proc_2 + 617 pi_d_a2_a6_proc_2
      + 617 pi_d_a2_a7_proc_2 + 617 pi_d_a2_a9_proc_2 + pi_y1_a2
      + pi_y2_a2_proc_2 >= 0
 c14: pi_p_a3_a1 + pi_p_a3_a5 + pi_p_a3_a4 - pi_p_a5_a3 - pi_p_a0_a3
      - pi_d_a0_a3_proc_0 + pi_d_a3_a0_proc_0 - pi_d_a1_a3_proc_0
      + pi_d_a3_a1_proc_0 - pi_d_a2_a3_proc_0 + pi_d_a3_a2_proc_0
      + pi_d_a3_a5_proc_0 - pi_d_a5_a3_proc_0 + pi_d_a3_a6_proc_0
      - pi_d_a6_a3_proc_0 + pi_d_a3_a7_proc_0 - pi_d_a7_a3_proc_0
      + pi_d_a3_a8_proc_0 - pi_d_a8_a3_proc_0 + pi_d_a3_a9_proc_0
      - pi_d_a9_a3_proc_0 >= 0
 c15: 730 pi_p_a3_a1 + 730 pi_p_a3_a5 + 730 pi_p_a3_a4 + 730 pi_d_a3_a0_proc_0
      + 730 pi_d_a3_a1_proc_0 + 730 pi_d_a3_a2_proc_0 + 730 pi_d_a3_a5_proc_0
      + 730 pi_d_a3_a6_proc_0 + 730 pi_d_a3_a7_proc_0 + 730 pi_d_a3_a8_proc_0
      + 730 pi_d_a3_a9_proc_0 + pi_y1_a3 + pi_y2_a3_proc_0 >= 0
 c16: pi_p_a4_a1 + pi_p_a4_a6 - pi_p_a8_a4 - pi_p_a3_a4 - pi_p_a6_a4
      - pi_d_a0_a4_proc_1 + pi_d_a4_a0_proc_1 - pi_d_a1_a4_proc_2
      - pi_d_a1_a4_proc_1 + pi_d_a4_a1_proc_2 + pi_d_a4_a1_proc_1
      - pi_d_a2_a4_proc_2 - pi_d_a2_a4_proc_1 + pi_d_a4_a2_proc_2
      + pi_d_a4_a2_proc_1 + pi_d_a4_a5_proc_2 + pi_d_a4_a5_proc_1
      - pi_d_a5_a4_proc_2 - pi_d_a5_a4_proc_1 + pi_d_a4_a6_proc_2
      - pi_d_a6_a4_proc_2 + pi_d_a4_a7_proc_2 + pi_d_a4_a7_proc_1
      - pi_d_a7_a4_proc_2 - pi_d_a7_a4_proc_1 + pi_d_a4_a8_proc_1
      - pi_d_a8_a4_proc_1 + pi_d_a4_a9_proc_2 + pi_d_a4_a9_proc_1
      - pi_d_a9_a4_proc_2 - pi_d_a9_a4_proc_1 >= 0
 c17: 1218 pi_p_a4_a1 + 1218 pi_p_a4_a6 + 1218 pi_d_a4_a0_proc_1
      + 1218 pi_d_a4_a1_proc_1 + 1218 pi_d_a4_a2_proc_1 + 1218 pi_d_a4_a5_proc_1
      + 1218 pi_d_a4_a7_proc_1 + 1218 pi_d_a4_a8_proc_1 + 1218 pi_d_a4_a9_proc_1
      + pi_y1_a4 + pi_y2_a4_proc_1 >= 0
 c18: 1041 pi_p_a4_a1 + 1041 pi_p_a4_a6 + 1041 pi_d_a4_a1_proc_2
      + 1041 pi_d_a4_a2_proc_2 + 1041 pi_d_a4_a5_proc_2 + 1041 pi_d_a4_a6_proc_2
      + 1041 pi_d_a4_a7_proc_2 + 1041 pi_d_a4_a9_proc_2 + pi_y1_a4
      + pi_y2_a4_proc_2 >= 0
 c19: - pi_p_a3_a5 + pi_p_a5_a3 - pi_d_a0_a5_proc_0 - pi_d_a0_a5_proc_1
      + pi_d_a5_a0_proc_0 + pi_d_a5_a0_proc_1 - pi_d_a1_a5_proc_2
      - pi_d_a1_a5_proc_0 - pi_d_a1_a5_proc_1 + pi_d_a5_a1_proc_2
      + pi_d_a5_a1_proc_0 + pi_d_a5_a1_proc_1 - pi_d_a2_a5_proc_2
      - pi_d_a2_a5_proc_0 - pi_d_a2_a5_proc_1 + pi_d_a5_a2_proc_2
      + pi_d_a5_a2_proc_0 + pi_d_a5_a2_proc_1 - pi_d_a3_a5_proc_0
      + pi_d_a5_a3_proc_0 - pi_d_a4_a5_proc_2 - pi_d_a4_a5_proc_1
      + pi_d_a5_a4_proc_2 + pi_d_a5_a4_proc_1 + pi_d_a5_a6_proc_2
      + pi_d_a5_a6_proc_0 - pi_d_a6_a5_proc_2 - pi_d_a6_a5_proc_0
      + pi_d_a5_a7_proc_2 + pi_d_a5_a7_proc_0 + pi_d_a5_a7_proc_1
      - pi_d_a7_a5_proc_2 - pi_d_a7_a5_proc_0 - pi_d_a7_a5_proc_1
      + pi_d_a5_a8_proc_0 + pi_d_a5_a8_proc_1 - pi_d_a8_a5_proc_0
      - pi_d_a8_a5_proc_1 + pi_d_a5_a9_proc_2 + pi_d_a5_a9_proc_0
      + pi_d_a5_a9_proc_1 - pi_d_a9_a5_proc_2 - pi_d_a9_a5_proc_0
      - pi_d_a9_a5_proc_1 >= 0
 c20: 1068 pi_p_a5_a3 + 1068 pi_d_a5_a0_proc_0 + 1068 pi_d_a5_a1_proc_0
      + 1068 pi_d_a5_a2_proc_0 + 1068 pi_d_a5_a3_proc_0 + 1068 pi_d_a5_a6_proc_0
      + 1068 pi_d_a5_a7_proc_0 + 1068 pi_d_a5_a8_proc_0 + 1068 pi_d_a5_a9_proc_0
      + pi_y1_a5 + pi_y2_a5_proc_0 >= 0
 c21: 1015 pi_p_a5_a3 + 1015 pi_d_a5_a0_proc_1 + 1015 pi_d_a5_a1_proc_1
      + 1015 pi_d_a5_a2_proc_1 + 1015 pi_d_a5_a4_proc_1 + 1015 pi_d_a5_a7_proc_1
      + 1015 pi_d_a5_a8_proc_1 + 1015 pi_d_a5_a9_proc_1 + pi_y1_a5
      + pi_y2_a5_proc_1 >= 0
 c22: 1174 pi_p_a5_a3 + 1174 pi_d_a5_a1_proc_2 + 1174 pi_d_a5_a2_proc_2
      + 1174 pi_d_a5_a4_proc_2 + 1174 pi_d_a5_a6_proc_2 + 1174 pi_d_a5_a7_proc_2
      + 1174 pi_d_a5_a9_proc_2 + pi_y1_a5 + pi_y2_a5_proc_2 >= 0
 c23: - pi_p_a4_a6 + pi_p_a6_a7 + pi_p_a6_a8 + pi_p_a6_a4 - pi_p_a2_a6
      - pi_d_a0_a6_proc_0 + pi_d_a6_a0_proc_0 - pi_d_a1_a6_proc_2
      - pi_d_a1_a6_proc_0 + pi_d_a6_a1_proc_2 + pi_d_a6_a1_proc_0
      - pi_d_a2_a6_proc_2 - pi_d_a2_a6_proc_0 + pi_d_a6_a2_proc_2
      + pi_d_a6_a2_proc_0 - pi_d_a3_a6_proc_0 + pi_d_a6_a3_proc_0
      - pi_d_a4_a6_proc_2 + pi_d_a6_a4_proc_2 - pi_d_a5_a6_proc_2
      - pi_d_a5_a6_proc_0 + pi_d_a6_a5_proc_2 + pi_d_a6_a5_proc_0
      + pi_d_a6_a7_proc_2 + pi_d_a6_a7_proc_0 - pi_d_a7_a6_proc_2
      - pi_d_a7_a6_proc_0 + pi_d_a6_a8_proc_0 - pi_d_a8_a6_proc_0
      + pi_d_a6_a9_proc_2 + pi_d_a6_a9_proc_0 - pi_d_a9_a6_proc_2
      - pi_d_a9_a6_proc_0 >= 0
 c24: 525 pi_p_a6_a7 + 525 pi_p_a6_a8 + 525 pi_p_a6_a4 + 525 pi_d_a6_a0_proc_0
      + 525 pi_d_a6_a1_proc_0 + 525 pi_d_a6_a2_proc_0 + 525 pi_d_a6_a3_proc_0
      + 525 pi_d_a6_a5_proc_0 + 525 pi_d_a6_a7_proc_0 + 525 pi_d_a6_a8_proc_0
      + 525 pi_d_a6_a9_proc_0 + pi_y1_a6 + pi_y2_a6_proc_0 >= 0
 c25: 200 pi_p_a6_a7 + 200 pi_p_a6_a8 + 200 pi_p_a6_a4 + 200 pi_d_a6_a1_proc_2
      + 200 pi_d_a6_a2_proc_2 + 200 pi_d_a6_a4_proc_2 + 200 pi_d_a6_a5_proc_2
      + 200 pi_d_a6_a7_proc_2 + 200 pi_d_a6_a9_proc_2 + pi_y1_a6
      + pi_y2_a6_proc_2 >= 0
 c26: - pi_p_a6_a7 + pi_p_a7_a8 - pi_d_a0_a7_proc_0 - pi_d_a0_a7_proc_1
      + pi_d_a7_a0_proc_0 + pi_d_a7_a0_proc_1 - pi_d_a1_a7_proc_2
      - pi_d_a1_a7_proc_0 - pi_d_a1_a7_proc_1 + pi_d_a7_a1_proc_2
      + pi_d_a7_a1_proc_0 + pi_d_a7_a1_proc_1 - pi_d_a2_a7_proc_2
      - pi_d_a2_a7_proc_0 - pi_d_a2_a7_proc_1 + pi_d_a7_a2_proc_2
      + pi_d_a7_a2_proc_0 + pi_d_a7_a2_proc_1 - pi_d_a3_a7_proc_0
      + pi_d_a7_a3_proc_0 - pi_d_a4_a7_proc_2 - pi_d_a4_a7_proc_1
      + pi_d_a7_a4_proc_2 + pi_d_a7_a4_proc_1 - pi_d_a5_a7_proc_2
      - pi_d_a5_a7_proc_0 - pi_d_a5_a7_proc_1 + pi_d_a7_a5_proc_2
      + pi_d_a7_a5_proc_0 + pi_d_a7_a5_proc_1 - pi_d_a6_a7_proc_2
      - pi_d_a6_a7_proc_0 + pi_d_a7_a6_proc_2 + pi_d_a7_a6_proc_0
      + pi_d_a7_a8_proc_0 + pi_d_a7_a8_proc_1 - pi_d_a8_a7_proc_0
      - pi_d_a8_a7_proc_1 + pi_d_a7_a9_proc_2 + pi_d_a7_a9_proc_0
      + pi_d_a7_a9_proc_1 - pi_d_a9_a7_proc_2 - pi_d_a9_a7_proc_0
      - pi_d_a9_a7_proc_1 >= 0
 c27: 684 pi_p_a7_a8 + 684 pi_d_a7_a0_proc_0 + 684 pi_d_a7_a1_proc_0
      + 684 pi_d_a7_a2_proc_0 + 684 pi_d_a7_a3_proc_0 + 684 pi_d_a7_a5_proc_0
      + 684 pi_d_a7_a6_proc_0 + 684 pi_d_a7_a8_proc_0 + 684 pi_d_a7_a9_proc_0
      + pi_y1_a7 + pi_y2_a7_proc_0 >= 0
 c28: 1134 pi_p_a7_a8 + 1134 pi_d_a7_a0_proc_1 + 1134 pi_d_a7_a1_proc_1
      + 1134 pi_d_a7_a2_proc_1 + 1134 pi_d_a7_a4_proc_1 + 1134 pi_d_a7_a5_proc_1
      + 1134 pi_d_a7_a8_proc_1 + 1134 pi_d_a7_a9_proc_1 + pi_y1_a7
      + pi_y2_a7_proc_1 >= 0
 c29: 974 pi_p_a7_a8 + 974 pi_d_a7_a1_proc_2 + 974 pi_d_a7_a2_proc_2
      + 974 pi_d_a7_a4_proc_2 + 974 pi_d_a7_a5_proc_2 + 974 pi_d_a7_a6_proc_2
      + 974 pi_d_a7_a9_proc_2 + pi_y1_a7 + pi_y2_a7_proc_2 >= 0
 c30: pi_p_a8_a4 + pi_p_a8_a9 - pi_p_a7_a8 - pi_p_a6_a8 + pi_p_a8_a1
      - pi_d_a0_a8_proc_0 - pi_d_a0_a8_proc_1 + pi_d_a8_a0_proc_0
      + pi_d_a8_a0_proc_1 - pi_d_a1_a8_proc_0 - pi_d_a1_a8_proc_1
      + pi_d_a8_a1_proc_0 + pi_d_a8_a1_proc_1 - pi_d_a2_a8_proc_0
      - pi_d_a2_a8_proc_1 + pi_d_a8_a2_proc_0 + pi_d_a8_a2_proc_1
      - pi_d_a3_a8_proc_0 + pi_d_a8_a3_proc_0 - pi_d_a4_a8_proc_1
      + pi_d_a8_a4_proc_1 - pi_d_a5_a8_proc_0 - pi_d_a5_a8_proc_1
      + pi_d_a8_a5_proc_0 + pi_d_a8_a5_proc_1 - pi_d_a6_a8_proc_0
      + pi_d_a8_a6_proc_0 - pi_d_a7_a8_proc_0 - pi_d_a7_a8_proc_1
      + pi_d_a8_a7_proc_0 + pi_d_a8_a7_proc_1 + pi_d_a8_a9_proc_0
      + pi_d_a8_a9_proc_1 - pi_d_a9_a8_proc_0 - pi_d_a9_a8_proc_1 >= 0
 c31: 1160 pi_p_a8_a4 + 1160 pi_p_a8_a9 + 1160 pi_p_a8_a1
      + 1160 pi_d_a8_a0_proc_0 + 1160 pi_d_a8_a1_proc_0 + 1160 pi_d_a8_a2_proc_0
      + 1160 pi_d_a8_a3_proc_0 + 1160 pi_d_a8_a5_proc_0 + 1160 pi_d_a8_a6_proc_0
      + 1160 pi_d_a8_a7_proc_0 + 1160 pi_d_a8_a9_proc_0 + pi_y1_a8
      + pi_y2_a8_proc_0 >= 0
 c32: 854 pi_p_a8_a4 + 854 pi_p_a8_a9 + 854 pi_p_a8_a1 + 854 pi_d_a8_a0_proc_1
      + 854 pi_d_a8_a1_proc_1 + 854 pi_d_a8_a2_proc_1 + 854 pi_d_a8_a4_proc_1
      + 854 pi_d_a8_a5_proc_1 + 854 pi_d_a8_a7_proc_1 + 854 pi_d_a8_a9_proc_1
      + pi_y1_a8 + pi_y2_a8_proc_1 >= 0
 c33: pi_p_a9_a0 - pi_p_a8_a9 - pi_p_a0_a9 - pi_p_a2_a9 - pi_d_a0_a9_proc_0
      - pi_d_a0_a9_proc_1 + pi_d_a9_a0_proc_0 + pi_d_a9_a0_proc_1
      - pi_d_a1_a9_proc_2 - pi_d_a1_a9_proc_0 - pi_d_a1_a9_proc_1
      + pi_d_a9_a1_proc_2 + pi_d_a9_a1_proc_0 + pi_d_a9_a1_proc_1
      - pi_d_a2_a9_proc_2 - pi_d_a2_a9_proc_0 - pi_d_a2_a9_proc_1
      + pi_d_a9_a2_proc_2 + pi_d_a9_a2_proc_0 + pi_d_a9_a2_proc_1
      - pi_d_a3_a9_proc_0 + pi_d_a9_a3_proc_0 - pi_d_a4_a9_proc_2
      - pi_d_a4_a9_proc_1 + pi_d_a9_a4_proc_2 + pi_d_a9_a4_proc_1
      - pi_d_a5_a9_proc_2 - pi_d_a5_a9_proc_0 - pi_d_a5_a9_proc_1
      + pi_d_a9_a5_proc_2 + pi_d_a9_a5_proc_0 + pi_d_a9_a5_proc_1
      - pi_d_a6_a9_proc_2 - pi_d_a6_a9_proc_0 + pi_d_a9_a6_proc_2
      + pi_d_a9_a6_proc_0 - pi_d_a7_a9_proc_2 - pi_d_a7_a9_proc_0
      - pi_d_a7_a9_proc_1 + pi_d_a9_a7_proc_2 + pi_d_a9_a7_proc_0
      + pi_d_a9_a7_proc_1 - pi_d_a8_a9_proc_0 - pi_d_a8_a9_proc_1
      + pi_d_a9_a8_proc_0 + pi_d_a9_a8_proc_1 >= 0
 c34: 1290 pi_p_a9_a0 + 1290 pi_d_a9_a0_proc_0 + 1290 pi_d_a9_a1_proc_0
      + 1290 pi_d_a9_a2_proc_0 + 1290 pi_d_a9_a3_proc_0 + 1290 pi_d_a9_a5_proc_0
      + 1290 pi_d_a9_a6_proc_0 + 1290 pi_d_a9_a7_proc_0 + 1290 pi_d_a9_a8_proc_0
      + pi_y1_a9 + pi_y2_a9_proc_0 >= 0
 c35: 831 pi_p_a9_a0 + 831 pi_d_a9_a0_proc_1 + 831 pi_d_a9_a1_proc_1
      + 831 pi_d_a9_a2_proc_1 + 831 pi_d_a9_a4_proc_1 + 831 pi_d_a9_a5_proc_1
      + 831 pi_d_a9_a7_proc_1 + 831 pi_d_a9_a8_proc_1 + pi_y1_a9
      + pi_y2_a9_proc_1 >= 0
 c36: 1073 pi_p_a9_a0 + 1073 pi_d_a9_a1_proc_2 + 1073 pi_d_a9_a2_proc_2
      + 1073 pi_d_a9_a4_proc_2 + 1073 pi_d_a9_a5_proc_2 + 1073 pi_d_a9_a6_proc_2
      + 1073 pi_d_a9_a7_proc_2 + pi_y1_a9 + pi_y2_a9_proc_2 >= 0

Bounds
       pi_y1_a0 Free
       pi_y1_a1 Free
       pi_y1_a2 Free
       pi_y1_a3 Free
       pi_y1_a4 Free
       pi_y1_a5 Free
       pi_y1_a6 Free
       pi_y1_a7 Free
       pi_y1_a8 Free
       pi_y1_a9 Free
End
