benchmark/results/graph__10-1000-0.10-03_6/graph__10-1000-0.10-03_6_QuintonOs_Benders_aux.txt
solution for: Quinton Bounded Benders_auxiliary_sub
objective: 0.0475725
status: OPTIMAL_SOLUTION(2)
pi_p_a4_a6=0.000
pi_p_a6_a7=0.000
pi_p_a8_a4=0.000
pi_p_a7_a8=0.000
pi_y1_a4=-0.339
pi_y1_a6=-0.065
pi_y1_a7=-0.317
pi_y1_a8=-0.278
pi_y2_a7_proc_0=0.094
